NAME: random-7-5810
TYPE: TSP
COMMENT: size=7 seed=5810
DIMENSION: 16
EDGE_WEIGHT_TYPE: EUC_2D
NODE_COORD_SECTION
+0 670 382
-0 670 382
+1 835 336
-1 9 412
+2 568 80
-2 884 651
+3 451 620
-3 900 611
+4 217 22
-4 531 684
+5 455 360
-5 903 135
+6 948 263
-6 692 227
+7 808 119
-7 234 144
PRECEDENCE_SECTION
+0 -0
+1 -1
+2 -2
+3 -3
+4 -4
+5 -5
+6 -6
+7 -7
EOF
